instances/knapsack/knapsack_general/knapsack_20_1_1.kp
42
20
5849

664 66.0 764 113.4
550 55.0 650 70.66
644 64.0 744 130.2
431 43.0 531 57.11
202 20.0 302 36.32
680 68.0 780 83.77
883 88.0 983 160.05
700 70.0 800 147.4
276 28.0 376 60.58
962 96.0 1062 129.83
546 55.0 646 119.19
697 70.0 797 149.16
389 39.0 489 64.95
994 99.0 1094 139.35
228 23.0 328 54.9
732 73.0 832 164.13
45 4.0 145 27.74
335 34.0 435 81.64
850 85.0 950 163.0
891 89.0 991 121.68

42
[953]

[[26, 18, 2, 25, 7, 23, 12, 25, 26, 10, 4, 21, 36, 32, 41, 21, 27, 0, 41, 27]]

[[493, 574, 822, 514, 936, 440, 69, 512, 874, 481, 771, 861, 99, 953, 181, 311, 211, 862, 188, 782]]
